words_hard_train/3322.qaiger
aag 88 16 0 1 72
2
4
8
10
22
24
38
46
58
70
72
90
106
112
130
148
177
6 2 4
12 9 11
14 8 10
16 13 15
18 6 16
20 19 15
26 23 25
28 22 24
30 27 29
32 20 31
34 21 30
36 33 35
40 17 38
42 41 19
44 3 5
48 45 47
50 49 7
52 16 39
54 50 53
56 42 55
60 57 58
62 36 61
64 56 59
66 63 65
68 35 29
74 71 73
76 70 72
78 75 77
80 68 79
82 69 78
84 81 83
86 67 84
88 83 77
92 91 47
94 90 46
96 93 95
98 88 97
100 89 96
102 99 101
104 86 102
108 105 106
110 101 95
114 113 39
116 112 38
118 115 117
120 111 118
122 109 121
124 110 119
126 122 125
128 121 117
132 131 59
134 130 58
136 133 135
138 128 137
140 129 136
142 139 141
144 126 142
146 144 106
150 148 106
152 149 107
154 151 153
156 141 135
158 155 157
160 154 156
162 159 161
164 66 85
166 164 107
168 127 166
170 143 103
172 168 170
174 162 173
176 147 175
i0 2 y2[0]
i1 1 x2[0]
i2 2 y2[1]
i3 1 x2[1]
i4 2 y2[2]
i5 1 x2[2]
i6 1 x2[5]
i7 1 x2[4]
i8 1 x2[6]
i9 2 y2[3]
i10 1 x2[3]
i11 2 y2[4]
i12 1 x2[7]
i13 2 y2[5]
i14 2 y2[6]
i15 2 y2[7]
o0 bv[0]
c
simplified
  <=
    add
      >> 4
        1 x2
      1
    add
      2 y2
      1 x2
