words_hard_train/3322.qaiger.qdimacs
p cnf 88 217
a 2 36 5 12 19 53 23 29 0
e 1 3 4 6 7 8 9 10 11 13 14 15 16 17 18 20 21 22 24 25 26 27 28 30 31 32 33 34 35 37 38 39 40 41 42 43 44 45 46 47 48 49 50 51 52 54 55 56 57 58 59 60 61 62 63 64 65 66 67 68 69 70 71 72 73 74 75 76 77 78 79 80 81 82 83 84 85 86 87 88 0
-1 -2 3 0
1 -3 0
2 -3 0
4 5 6 0
-4 -6 0
-5 -6 0
-4 -5 7 0
4 -7 0
5 -7 0
6 7 8 0
-6 -8 0
-7 -8 0
-3 -8 9 0
3 -9 0
8 -9 0
9 7 10 0
-9 -10 0
-7 -10 0
11 12 13 0
-11 -13 0
-12 -13 0
-11 -12 14 0
11 -14 0
12 -14 0
13 14 15 0
-13 -15 0
-14 -15 0
-10 15 16 0
10 -16 0
-15 -16 0
10 -15 17 0
-10 -17 0
15 -17 0
16 17 18 0
-16 -18 0
-17 -18 0
8 -19 20 0
-8 -20 0
19 -20 0
20 9 21 0
-20 -21 0
-9 -21 0
1 2 22 0
-1 -22 0
-2 -22 0
22 23 24 0
-22 -24 0
-23 -24 0
24 3 25 0
-24 -25 0
-3 -25 0
-8 19 26 0
8 -26 0
-19 -26 0
-25 26 27 0
25 -27 0
-26 -27 0
-21 27 28 0
21 -28 0
-27 -28 0
28 -29 30 0
-28 -30 0
29 -30 0
-18 30 31 0
18 -31 0
-30 -31 0
-28 29 32 0
28 -32 0
-29 -32 0
31 32 33 0
-31 -33 0
-32 -33 0
17 14 34 0
-17 -34 0
-14 -34 0
35 36 37 0
-35 -37 0
-36 -37 0
-35 -36 38 0
35 -38 0
36 -38 0
37 38 39 0
-37 -39 0
-38 -39 0
-34 39 40 0
34 -40 0
-39 -40 0
34 -39 41 0
-34 -41 0
39 -41 0
40 41 42 0
-40 -42 0
-41 -42 0
33 -42 43 0
-33 -43 0
42 -43 0
41 38 44 0
-41 -44 0
-38 -44 0
45 23 46 0
-45 -46 0
-23 -46 0
-45 -23 47 0
45 -47 0
23 -47 0
46 47 48 0
-46 -48 0
-47 -48 0
-44 48 49 0
44 -49 0
-48 -49 0
44 -48 50 0
-44 -50 0
48 -50 0
49 50 51 0
-49 -51 0
-50 -51 0
-43 -51 52 0
43 -52 0
51 -52 0
52 -53 54 0
-52 -54 0
53 -54 0
50 47 55 0
-50 -55 0
-47 -55 0
56 19 57 0
-56 -57 0
-19 -57 0
-56 -19 58 0
56 -58 0
19 -58 0
57 58 59 0
-57 -59 0
-58 -59 0
55 -59 60 0
-55 -60 0
59 -60 0
54 60 61 0
-54 -61 0
-60 -61 0
-55 59 62 0
55 -62 0
-59 -62 0
-61 62 63 0
61 -63 0
-62 -63 0
60 58 64 0
-60 -64 0
-58 -64 0
65 29 66 0
-65 -66 0
-29 -66 0
-65 -29 67 0
65 -67 0
29 -67 0
66 67 68 0
-66 -68 0
-67 -68 0
-64 68 69 0
64 -69 0
-68 -69 0
64 -68 70 0
-64 -70 0
68 -70 0
69 70 71 0
-69 -71 0
-70 -71 0
-63 -71 72 0
63 -72 0
71 -72 0
-72 -53 73 0
72 -73 0
53 -73 0
-74 -53 75 0
74 -75 0
53 -75 0
74 53 76 0
-74 -76 0
-53 -76 0
75 76 77 0
-75 -77 0
-76 -77 0
70 67 78 0
-70 -78 0
-67 -78 0
77 78 79 0
-77 -79 0
-78 -79 0
-77 -78 80 0
77 -80 0
78 -80 0
79 80 81 0
-79 -81 0
-80 -81 0
-33 42 82 0
33 -82 0
-42 -82 0
-82 53 83 0
82 -83 0
-53 -83 0
63 -83 84 0
-63 -84 0
83 -84 0
71 51 85 0
-71 -85 0
-51 -85 0
-84 -85 86 0
84 -86 0
85 -86 0
-81 86 87 0
81 -87 0
-86 -87 0
73 87 88 0
-73 -88 0
-87 -88 0
-88 0
